\ENCODING=ISO-8859-1
\Problem name: ilog.cplex

Maximize
 obj: 2 g(0)(0)#0 + 2 g(1)(0)#1 + 5 g(2)(0)#2 + 5 g(3)(0)#3 + 2 g(4)(0)#4
      + 2 g(5)(0)#5 + g(0)(1)#6 + 3 g(1)(1)#7 + 3 g(4)(1)#10 + 3 g(5)(1)#11
      + 3 g(0)(2)#12 + 7 g(1)(2)#13 + 3 g(2)(2)#14 + 3 g(3)(2)#15
      + 7 g(4)(2)#16 + 7 g(5)(2)#17
Subject To
 Proba_Theta0#0:  g(0)(0)#0 + g(1)(0)#1 + g(2)(0)#2 + g(3)(0)#3 + g(4)(0)#4
                  + g(5)(0)#5  = 1
 Proba_Theta1#1:  g(0)(1)#6 + g(1)(1)#7 + g(2)(1)#8 + g(3)(1)#9 + g(4)(1)#10
                  + g(5)(1)#11  = 1
 Proba_Theta2#2:  g(0)(2)#12 + g(1)(2)#13 + g(2)(2)#14 + g(3)(2)#15
                  + g(4)(2)#16 + g(5)(2)#17  = 1
 Proba_Theta3#3:  g(0)(3)#18 + g(1)(3)#19 + g(2)(3)#20 + g(3)(3)#21
                  + g(4)(3)#22 + g(5)(3)#23  = 1
 Proba_Theta4#4:  g(0)(4)#24 + g(1)(4)#25 + g(2)(4)#26 + g(3)(4)#27
                  + g(4)(4)#28 + g(5)(4)#29  = 1
 Proba_Theta5#5:  g(0)(5)#30 + g(1)(5)#31 + g(2)(5)#32 + g(3)(5)#33
                  + g(4)(5)#34 + g(5)(5)#35  = 1
 IR_A0,Theta0#6:  2 g(0)(0)#0 + 2 g(1)(0)#1 + 5 g(2)(0)#2 + 5 g(3)(0)#3
                  + 2 g(4)(0)#4 + 2 g(5)(0)#5 >= 2
 IR_A0,Theta3#7:  >= 0
 IR_A1,Theta1#8:  g(0)(1)#6 + 3 g(1)(1)#7 + 3 g(4)(1)#10 + 3 g(5)(1)#11 >= 1
 IR_A1,Theta4#9:  >= 0
 IR_A2,Theta2#10: 3 g(0)(2)#12 + 7 g(1)(2)#13 + 3 g(2)(2)#14 + 3 g(3)(2)#15
                  + 7 g(4)(2)#16 + 7 g(5)(2)#17 >= 3
 IR_A2,Theta5#11: >= 0
 IC_A0,Theta3#12: 2 g(0)(0)#0 + 2 g(1)(0)#1 + 5 g(2)(0)#2 + 5 g(3)(0)#3
                  + 2 g(4)(0)#4 + 2 g(5)(0)#5 - 2 g(0)(3)#18 - 2 g(1)(3)#19
                  - 5 g(2)(3)#20 - 5 g(3)(3)#21 - 2 g(4)(3)#22 - 2 g(5)(3)#23
                  >= 0
 IC_A1,Theta4#13: g(0)(1)#6 + 3 g(1)(1)#7 + 3 g(4)(1)#10 + 3 g(5)(1)#11
                  - g(0)(4)#24 - 3 g(1)(4)#25 - 3 g(4)(4)#28 - 3 g(5)(4)#29
                  >= 0
 IC_A2,Theta5#14: 3 g(0)(2)#12 + 7 g(1)(2)#13 + 3 g(2)(2)#14 + 3 g(3)(2)#15
                  + 7 g(4)(2)#16 + 7 g(5)(2)#17 - 3 g(0)(5)#30 - 7 g(1)(5)#31
                  - 3 g(2)(5)#32 - 3 g(3)(5)#33 - 7 g(4)(5)#34 - 7 g(5)(5)#35
                  >= 0
Bounds
 0 <= g(0)(0)#0 <= 1
 0 <= g(1)(0)#1 <= 1
 0 <= g(2)(0)#2 <= 1
 0 <= g(3)(0)#3 <= 1
 0 <= g(4)(0)#4 <= 1
 0 <= g(5)(0)#5 <= 1
 0 <= g(0)(1)#6 <= 1
 0 <= g(1)(1)#7 <= 1
 0 <= g(2)(1)#8 <= 1
 0 <= g(3)(1)#9 <= 1
 0 <= g(4)(1)#10 <= 1
 0 <= g(5)(1)#11 <= 1
 0 <= g(0)(2)#12 <= 1
 0 <= g(1)(2)#13 <= 1
 0 <= g(2)(2)#14 <= 1
 0 <= g(3)(2)#15 <= 1
 0 <= g(4)(2)#16 <= 1
 0 <= g(5)(2)#17 <= 1
 0 <= g(0)(3)#18 <= 1
 0 <= g(1)(3)#19 <= 1
 0 <= g(2)(3)#20 <= 1
 0 <= g(3)(3)#21 <= 1
 0 <= g(4)(3)#22 <= 1
 0 <= g(5)(3)#23 <= 1
 0 <= g(0)(4)#24 <= 1
 0 <= g(1)(4)#25 <= 1
 0 <= g(2)(4)#26 <= 1
 0 <= g(3)(4)#27 <= 1
 0 <= g(4)(4)#28 <= 1
 0 <= g(5)(4)#29 <= 1
 0 <= g(0)(5)#30 <= 1
 0 <= g(1)(5)#31 <= 1
 0 <= g(2)(5)#32 <= 1
 0 <= g(3)(5)#33 <= 1
 0 <= g(4)(5)#34 <= 1
 0 <= g(5)(5)#35 <= 1
End
